results/res_prop_muc/res_Cimatti_mathsat_cores/QF_LRA/gasburner-prop3-20.smt.smt2.res
unsat
( c100
  c106
  c109
  c112
  c115
  c116
  c117
  c118
  c122
  c123
  c131
  c133
  c134
  c135
  c136
  c138
  c142
  c144
  c146
  c148
  c149
  c150
  c155
  c163
  c165
  c166
  c167
  c168
  c170
  c174
  c176
  c178
  c180
  c181
  c182
  c188
  c189
  c190
  c191
  c192
  c195
  c196
  c201
  c202
  c205
  c208
  c211
  c212
  c213
  c214
  c218
  c220
  c221
  c222
  c223
  c224
  c227
  c228
  c234
  c237
  c240
  c243
  c244
  c245
  c246
  c250
  c251
  c259
  c261
  c262
  c263
  c264
  c266
  c270
  c272
  c274
  c276
  c277
  c278
  c282
  c283
  c291
  c293
  c294
  c295
  c296
  c298
  c302
  c304
  c306
  c308
  c309
  c310
  c316
  c317
  c318
  c319
  c320
  c323
  c324
  c330
  c333
  c336
  c339
  c340
  c341
  c342
  c346
  c348
  c349
  c350
  c351
  c352
  c355
  c356
  c362
  c365
  c368
  c371
  c372
  c373
  c374
  c378
  c379
  c387
  c389
  c390
  c391
  c392
  c394
  c398
  c40
  c400
  c402
  c404
  c405
  c406
  c410
  c411
  c419
  c42
  c421
  c422
  c423
  c424
  c425
  c426
  c430
  c432
  c434
  c436
  c437
  c438
  c444
  c445
  c446
  c447
  c448
  c451
  c452
  c458
  c461
  c464
  c467
  c468
  c469
  c470
  c474
  c476
  c477
  c478
  c479
  c48
  c480
  c483
  c484
  c490
  c493
  c496
  c499
  c50
  c500
  c501
  c502
  c508
  c516
  c517
  c518
  c519
  c52
  c520
  c522
  c528
  c53
  c530
  c531
  c532
  c533
  c538
  c539
  c547
  c549
  c550
  c551
  c552
  c554
  c558
  c560
  c562
  c564
  c565
  c566
  c572
  c573
  c574
  c575
  c576
  c579
  c58
  c580
  c586
  c589
  c592
  c595
  c596
  c597
  c598
  c60
  c604
  c605
  c606
  c607
  c608
  c612
  c618
  c621
  c624
  c627
  c628
  c629
  c63
  c630
  c636
  c64
  c644
  c645
  c646
  c647
  c648
  c649
  c650
  c656
  c658
  c659
  c660
  c661
  c668
  c669
  c67
  c670
  c671
  c672
  c675
  c676
  c678
  c679
  c68
  c681
  c682
  c684
  c685
  c687
  c688
  c691
  c694
  c697
  c700
  c703
  c706
  c709
  c712
  c715
  c718
  c735
  c74
  c77
  c80
  c83
  c84
  c85
  c86
  c92
  c93
  c94
  c95
  c96 )
